% From JaCoP's nonogramRepository/data147.nin
 rows = 10;
 row_rule_len = 3;
 row_rules = array2d(1..rows, 1..row_rule_len, 
[
 0,3,6,
 0,1,4,
 1,1,3,
 0,0,2,
 0,3,3,
 0,1,4,
 0,2,5,
 0,2,5,
 0,1,1,
 0,0,3
]);

 cols = 10;
 col_rule_len = 4;
 col_rules = array2d(1..cols, 1..col_rule_len, 
[
 0,0,2,3,
 0,0,1,2,
 1,1,1,1,
 0,0,1,2,
 1,1,1,1,
 0,0,1,2,
 0,0,2,3,
 0,0,3,4,
 0,0,0,8,
 0,0,0,9
]);

